c Our program for 12 SRL to CNF
c weights 1 0 0.1 0.9 0.3 0.7 0.8 0.2 0.2 0.8 0.6 0.4 0.4 0.6 0.3 0.7
p cnf 8 27
1 -2 -3 -4 -5 0
1 -6 -7 -5 0
1 -6 -8 0
-1 2 6 0
-1 2 6 8 0
-1 2 7 6 0
-1 2 7 8 0
-1 2 5 6 0
-1 2 5 8 0
-1 3 6 0
-1 3 6 8 0
-1 3 7 6 0
-1 3 7 8 0
-1 3 5 6 0
-1 3 5 8 0
-1 4 6 0
-1 4 6 8 0
-1 4 7 6 0
-1 4 7 8 0
-1 4 5 6 0
-1 4 5 8 0
-1 5 6 0
-1 5 6 8 0
-1 5 7 6 0
-1 5 7 8 0
-1 5 5 6 0
-1 5 5 8 0
